(set-info :smt-lib-version 2.6)
(set-logic QF_UFLRA)
(set-info :source |
MathSat group

|)
(set-info :category "random")
(set-info :status sat)
(declare-fun x0 () Real)
(declare-fun x1 () Real)
(declare-fun x2 () Real)
(declare-fun x3 () Real)
(declare-fun x4 () Real)
(declare-fun x5 () Real)
(declare-fun x6 () Real)
(declare-fun x7 () Real)
(declare-fun x8 () Real)
(declare-fun x9 () Real)
(declare-fun x10 () Real)
(declare-fun x11 () Real)
(declare-fun x12 () Real)
(declare-fun x13 () Real)
(declare-fun x14 () Real)
(declare-fun x15 () Real)
(declare-fun x16 () Real)
(declare-fun x17 () Real)
(declare-fun x18 () Real)
(declare-fun x19 () Real)
(declare-fun x20 () Real)
(declare-fun x21 () Real)
(declare-fun x22 () Real)
(declare-fun x23 () Real)
(declare-fun x24 () Real)
(declare-fun x25 () Real)
(declare-fun x26 () Real)
(declare-fun x27 () Real)
(declare-fun x28 () Real)
(declare-fun x29 () Real)
(declare-fun f0_1 (Real) Real)
(declare-fun f0_2 (Real Real) Real)
(declare-fun f0_3 (Real Real Real) Real)
(declare-fun f0_4 (Real Real Real Real) Real)
(declare-fun P0 () Bool)
(declare-fun P1 () Bool)
(declare-fun P2 () Bool)
(declare-fun P3 () Bool)
(declare-fun P4 () Bool)
(declare-fun P5 () Bool)
(declare-fun P6 () Bool)
(declare-fun P7 () Bool)
(declare-fun P8 () Bool)
(declare-fun P9 () Bool)
(declare-fun P10 () Bool)
(declare-fun P11 () Bool)
(declare-fun P12 () Bool)
(declare-fun P13 () Bool)
(declare-fun P14 () Bool)
(declare-fun P15 () Bool)
(declare-fun P16 () Bool)
(declare-fun P17 () Bool)
(declare-fun P18 () Bool)
(declare-fun P19 () Bool)
(declare-fun P20 () Bool)
(declare-fun P21 () Bool)
(declare-fun P22 () Bool)
(declare-fun P23 () Bool)
(declare-fun P24 () Bool)
(declare-fun P25 () Bool)
(declare-fun P26 () Bool)
(declare-fun P27 () Bool)
(declare-fun P28 () Bool)
(declare-fun P29 () Bool)
(assert (let ((?v_32 (* 27 x1)) (?v_5 (* 4 x25))) (let ((?v_7 (<= (+ (- ?v_5 (* 41 x29)) (* 10 x29)) 35)) (?v_89 (< (+ (- (* 13 x16) (* 41 x24)) (* 39 x20)) 0)) (?v_6 (* 42 x9)) (?v_86 (< (- (- (* 25 x8) (* 34 x21)) ?v_5) 30)) (?v_13 (< (+ (- (* 34 x2) (* 41 x10)) (* 39 x8)) 33)) (?v_39 (f0_1 x22))) (let ((?v_138 (= (f0_2 x14 x14) ?v_39)) (?v_11 (distinct ?v_39 x15)) (?v_95 (= (f0_1 x17) x17)) (?v_46 (= (f0_1 x8) x20)) (?v_115 (= (f0_2 x0 x25) (f0_1 x12))) (?v_56 (distinct (f0_2 x22 x25) (f0_1 x2))) (?v_55 (f0_1 x19))) (let ((?v_44 (= ?v_55 (f0_1 x3))) (?v_106 (distinct (f0_1 x5) x2)) (?v_82 (distinct x17 x10)) (?v_105 (distinct (f0_1 x26) ?v_55)) (?v_43 (= x17 x17)) (?v_25 (distinct x1 x26)) (?v_31 (f0_1 x28)) (?v_1 (f0_1 x16))) (let ((?v_41 (distinct ?v_31 ?v_1)) (?v_88 (distinct x2 (f0_1 x4))) (?v_37 (= (f0_2 x11 x7) ?v_31)) (?v_75 (distinct x27 x12)) (?v_4 (= (f0_2 x16 x18) ?v_1)) (?v_34 (distinct (f0_1 x1) x26)) (?v_102 (distinct x3 (f0_1 x20))) (?v_33 (distinct (f0_1 x23) (f0_2 x14 x15))) (?v_45 (= (f0_1 x15) x3)) (?v_47 (= ?v_1 x23)) (?v_140 (distinct (f0_1 x27) ?v_1)) (?v_103 (distinct (f0_1 x24) x4)) (?v_90 (distinct x2 x12)) (?v_148 (= x10 x23)) (?v_36 (distinct (f0_2 x19 x18) x14)) (?v_24 (= (f0_2 x21 x28) x12)) (?v_48 (= (f0_2 x8 x27) (f0_2 x17 x13))) (?v_94 (distinct x18 x28)) (?v_123 (not P1))) (let ((?v_0 (not ?v_24)) (?v_3 (not P2)) (?v_22 (not P0)) (?v_87 (not P20)) (?v_107 (not ?v_4)) (?v_52 (not P13)) (?v_91 (not P17)) (?v_19 (not P18)) (?v_54 (not ?v_56)) (?v_17 (not ?v_46)) (?v_38 (not P6)) (?v_120 (not P22)) (?v_80 (not P14)) (?v_146 (not P21)) (?v_72 (not P10)) (?v_101 (not ?v_33)) (?v_67 (not ?v_44)) (?v_50 (not ?v_11)) (?v_77 (not P27)) (?v_116 (not P5)) (?v_62 (not P9)) (?v_71 (not ?v_103)) (?v_98 (not ?v_90)) (?v_30 (not P29)) (?v_58 (not ?v_148)) (?v_97 (not ?v_82)) (?v_53 (not ?v_34)) (?v_132 (not ?v_36)) (?v_40 (not ?v_48)) (?v_76 (not ?v_138)) (?v_63 (not P19)) (?v_109 (not P8)) (?v_113 (not P3)) (?v_141 (not P16)) (?v_65 (not ?v_106)) (?v_100 (not ?v_43)) (?v_60 (not ?v_13)) (?v_119 (not ?v_45)) (?v_93 (not P28)) (?v_139 (not ?v_115)) (?v_73 (not P25)) (?v_81 (not ?v_47)) (?v_78 (not ?v_75)) (?v_122 (not P11)) (?v_118 (not P23)) (?v_111 (not P24)) (?v_130 (not ?v_86)) (?v_144 (not ?v_102)) (?v_114 (not ?v_41)) (?v_128 (not P15)) (?v_104 (not ?v_37)) (?v_110 (not P12)) (?v_133 (not P4)) (?v_145 (not ?v_140)) (?v_121 (not ?v_89)) (?v_129 (not ?v_105)) (?v_151 (not ?v_94)) (?v_134 (not P7)) (?v_126 (not ?v_88)) (?v_127 (not ?v_95)) (?v_149 (not P26)) (?v_147 (not ?v_25)) (?v_18 (<= (+ (* 26 x18) (* 16 x15) (* 22 x9)) 39))) (let ((?v_20 (not ?v_18)) (?v_135 (<= (- (+ (* 32 x19) (* 24 x4)) 0) 32))) (let ((?v_153 (not ?v_135)) (?v_2 (distinct (+ (* (- 38) x22) (* 29 x9) (* 38 x18)) (- 37)))) (let ((?v_26 (not ?v_2)) (?v_8 (<= (- (+ (* (- 3) x26) (* 4 x18)) (* 31 x3)) 35)) (?v_85 (<= (- (- (* 27 x25) (* 14 x12)) (* 26 x25)) (- 35))) (?v_9 (< (+ (- (* 7 x4) (* 33 x13)) (* 37 x16)) (- 38))) (?v_83 (<= (+ (* (- 23) x24) (* 31 x1) (* 8 x27)) (- 34))) (?v_10 (< (- (- (* 33 x25) (* 39 x15)) 0) (- 43))) (?v_28 (<= (- (+ (* (- 12) x6) (* 41 x14)) (* 24 x2)) (- 18))) (?v_16 (<= (- (- (* (- 14) x9) (* 27 x14)) 0) (- 14)))) (let ((?v_108 (not ?v_16)) (?v_27 (= (+ (- (* 26 x15) (* 27 x20)) ?v_6) (- 20))) (?v_79 (<= (- (- (* 9 x20) (* 7 x25)) (* 23 x27)) (- 5)))) (let ((?v_14 (not ?v_79)) (?v_42 (< (- (- ?v_6 (* 40 x7)) (* 40 x28)) (- 15))) (?v_23 (= (+ (* (- 4) x28) (* 14 x21) (* 14 x19)) 22))) (let ((?v_137 (not ?v_23)) (?v_21 (< (- (- (* 33 x29) (* 5 x11)) 0) (- 40)))) (let ((?v_12 (not ?v_21)) (?v_131 (not ?v_10)) (?v_15 (<= (+ (- (* (- 16) x3) x28) (* 25 x17)) 21)) (?v_152 (< (+ (* (- 17) x15) (* 3 x27) (* 23 x14)) 19))) (let ((?v_57 (not ?v_152)) (?v_35 (< (+ (* (- 5) x26) (* 24 x1) x8) (- 28))) (?v_142 (= (- (- (* 25 x4) (* 8 x9)) ?v_32) (- 22)))) (let ((?v_64 (not ?v_142)) (?v_99 (not ?v_9)) (?v_66 (<= (- (- 0 (* 15 x11)) (* 39 x27)) (- 42))) (?v_96 (< (+ (* 10 x0) (* 31 x25) (* 3 x19)) (- 39))) (?v_29 (not ?v_28)) (?v_70 (<= (+ (- (* (- 18) x17) ?v_32) x29) (- 18)))) (let ((?v_49 (not ?v_70)) (?v_59 (< (+ (- (* 21 x8) (* 19 x12)) (* 35 x15)) (- 14))) (?v_68 (not ?v_35)) (?v_74 (not ?v_27)) (?v_51 (not ?v_42)) (?v_61 (<= (+ (* (- 42) x22) (* 16 x14) (* 19 x15)) 37)) (?v_84 (<= (- (+ (* (- 35) x10) (* 33 x17)) 0) 42))) (let ((?v_69 (not ?v_59)) (?v_92 (not ?v_66)) (?v_112 (not ?v_15)) (?v_124 (not ?v_96)) (?v_150 (not ?v_61)) (?v_117 (not ?v_84)) (?v_143 (not ?v_85)) (?v_154 (not ?v_8)) (?v_125 (< (- (- (* (- 12) x1) (* 2 x11)) (* 5 x14)) (- 4)))) (let ((?v_136 (not ?v_125))) (and (and (and (and (and (and (and (and (and (and (and (and (and (and (and (and (and (and (and (and (and (and (and (and (and (and (and (and (and (and (and (and (and (and (and (and (and (and (and (and (and (and (and (and (and (and (and (and (and (and (and (and (and (and (and (and (and (and (and (and (and (and (and (and (and (and (and (and (and (and (and (and (and (and (and (and (and (and (and (and (and (and (and (and (and (and (and (and (and (and (and (and (and (and (and (and (and (and (and (and (and (and (and (and (and (and (and (and (and (and (and (and (and (and (and (and (and (and (and (and (and (and (and (and (and (and (and (and (and (and (and (and (and (and (and (and (and (and (and (and (and (and (and (and (and (and (and (and (and (and (and (and (and (and (and (and (and (and (and (and (and (and (and (and (and (and (and (and (and (and (and (and (and (and (and (and (and (and (and (and (and (and (and (and (and (and (and (and (and (and (and (and (and (and (and (and (and (and (and (and (and (and (and (and (and (and (and (and (and (and (and (and (and (and (and (and (and (and (and (and (and (and (and (and (and (and (and (and (and (and (and (and (and (and (and (and (and (and (and (and (and (and (and (and (and (and (and (and (and (and (and (and (and (and (and (and (and (and (and (and (and (and (and (and (and (and (and (and (and (and (and (and (and (and (and (and (and (and (and (and (and (and (and (and (and (and (and (and (and (and (and (and (and (and (and (and (and (and (and (and (and (and (and (and (and (and (and (and (and (and (and (and (and (and (and (and (and (and (and (and (and (and (and (and (and (and (and (and (and (and (and (and (and (and (and (and (and (and (and (and (and (and (and (and (and (and (and (and (and (and (and (and (and (and (and (and (and (and (and (or (or ?v_13 ?v_123) P16) (or (or ?v_26 P1) ?v_0)) (or (or ?v_8 ?v_0) ?v_7)) (or (or ?v_3 P17) ?v_22)) (or (or ?v_85 P12) ?v_20)) (or (or ?v_45 ?v_87) ?v_107)) (or (or ?v_47 ?v_9) P14)) (or (or ?v_83 ?v_10) ?v_28)) (or (or P2 ?v_2) ?v_94)) (or (or ?v_25 ?v_108) ?v_52)) (or (or ?v_3 ?v_4) ?v_91)) (or (or ?v_19 P6) P14)) (or (or ?v_54 ?v_86) ?v_17)) (or (or P19 P29) P20)) (or (or ?v_11 ?v_75) P15)) (or (or ?v_38 ?v_120) ?v_27)) (or (or ?v_14 ?v_80) ?v_146)) (or (or ?v_36 ?v_42) ?v_72)) (or (or ?v_7 (not ?v_7)) ?v_8)) (or (or ?v_137 ?v_101) ?v_9)) (or (or P10 ?v_12) ?v_67)) (or (or ?v_131 P13) ?v_50)) (or (or ?v_12 P4) ?v_15)) (or (or ?v_13 P8) ?v_77)) (or (or ?v_116 ?v_14) ?v_15)) (or (or ?v_16 ?v_17) P17)) (or (or P6 ?v_18) ?v_62)) (or (or ?v_71 ?v_57) ?v_19)) (or (or ?v_98 ?v_16) P7)) (or (or P10 ?v_2) ?v_20)) (or (or ?v_35 ?v_30) P25)) (or (or P19 ?v_21) ?v_22)) (or (or ?v_95 ?v_23) ?v_58)) (or (or P29 ?v_10) ?v_24)) (or (or P3 ?v_97) ?v_64)) (or (or ?v_25 ?v_99) P10)) (or (or ?v_12 ?v_43) ?v_26)) (or (or ?v_37 ?v_27) ?v_66)) (or (or ?v_96 ?v_53) ?v_29)) (or (or ?v_29 ?v_30) ?v_41)) (or (or P18 ?v_25) ?v_49)) (or (or ?v_19 ?v_33) ?v_34)) (or (or ?v_59 ?v_68) ?v_20)) (or (or ?v_132 ?v_37) ?v_38)) (or (or ?v_40 ?v_76) ?v_17)) (or (or ?v_63 ?v_10) ?v_109)) (or (or ?v_30 ?v_2) ?v_74)) (or (or ?v_20 ?v_40) ?v_113)) (or (or ?v_153 ?v_41) ?v_42)) (or (or ?v_43 P2) ?v_89)) (or (or ?v_44 ?v_141) ?v_51)) (or (or ?v_18 P8) ?v_45)) (or (or ?v_3 ?v_46) ?v_47)) (or (or ?v_45 ?v_35) ?v_65)) (or (or P27 ?v_9) ?v_0)) (or (or ?v_48 ?v_45) ?v_49)) (or (or ?v_50 ?v_100) ?v_51)) (or (or P10 ?v_49) ?v_52)) (or (or ?v_53 ?v_54) ?v_19)) (or (or ?v_54 P26) ?v_52)) (or (or ?v_105 P13) ?v_61)) (or (or ?v_56 P19) ?v_57)) (or (or ?v_58 ?v_84) ?v_35)) (or (or ?v_28 ?v_60) ?v_69)) (or (or ?v_60 ?v_119) ?v_61)) (or (or P27 ?v_62) ?v_22)) (or (or ?v_38 ?v_12) ?v_63)) (or (or ?v_64 P21) ?v_93)) (or (or P7 P10) ?v_65)) (or (or P18 ?v_66) P20)) (or (or ?v_67 ?v_68) ?v_69)) (or (or ?v_70 ?v_139) ?v_71)) (or (or ?v_68 ?v_7) ?v_20)) (or (or ?v_72 ?v_3) ?v_73)) (or (or ?v_68 ?v_63) ?v_73)) (or (or ?v_81 ?v_74) ?v_75)) (or (or ?v_76 ?v_41) ?v_78)) (or (or ?v_77 ?v_33) ?v_78)) (or (or ?v_79 ?v_80) ?v_81)) (or (or ?v_92 ?v_122) ?v_82)) (or (or ?v_12 ?v_83) ?v_10)) (or (or P1 ?v_84) ?v_85)) (or (or P13 P25) P10)) (or (or ?v_59 ?v_30) ?v_86)) (or (or ?v_88 ?v_36) ?v_23)) (or (or P18 ?v_87) ?v_88)) (or (or ?v_77 ?v_47) ?v_41)) (or (or P3 ?v_89) ?v_58)) (or (or ?v_56 P9) P13)) (or (or ?v_18 ?v_49) P25)) (or (or ?v_17 ?v_42) ?v_90)) (or (or ?v_118 ?v_48) ?v_62)) (or (or ?v_91 ?v_111) ?v_67)) (or (or ?v_112 ?v_11) ?v_92)) (or (or ?v_83 P24) ?v_93)) (or (or ?v_46 ?v_78) P29)) (or (or ?v_94 ?v_86) ?v_71)) (or (or ?v_95 ?v_57) ?v_93)) (or (or ?v_124 ?v_0) ?v_97)) (or (or P7 ?v_25) ?v_70)) (or (or ?v_58 ?v_130) ?v_144)) (or (or ?v_150 ?v_98) ?v_83)) (or (or P11 ?v_36) ?v_53)) (or (or P14 ?v_48) ?v_99)) (or (or ?v_16 ?v_10) ?v_35)) (or (or ?v_0 ?v_114) ?v_128)) (or (or ?v_9 ?v_94) ?v_117)) (or (or ?v_57 ?v_100) ?v_101)) (or (or ?v_52 ?v_102) ?v_104)) (or (or ?v_90 ?v_103) ?v_18)) (or (or ?v_14 P5) ?v_85)) (or (or P15 ?v_104) P25)) (or (or ?v_75 ?v_57) ?v_102)) (or (or ?v_38 ?v_36) ?v_34)) (or (or P26 ?v_35) P1)) (or (or ?v_105 ?v_110) P1)) (or (or ?v_33 ?v_11) ?v_106)) (or (or P28 ?v_76) P18)) (or (or ?v_68 ?v_89) ?v_82)) (or (or ?v_107 ?v_52) ?v_75)) (or (or ?v_26 P17) ?v_108)) (or (or ?v_133 ?v_85) ?v_57)) (or (or ?v_62 ?v_109) P11)) (or (or ?v_12 ?v_145) ?v_60)) (or (or ?v_108 ?v_121) ?v_110)) (or (or ?v_129 P7) ?v_34)) (or (or ?v_111 ?v_72) ?v_108)) (or (or ?v_73 ?v_112) ?v_23)) (or (or P9 P24) ?v_38)) (or (or P11 ?v_62) ?v_24)) (or (or ?v_91 ?v_69) ?v_113)) (or (or ?v_143 ?v_18) ?v_70)) (or (or P14 P7) ?v_106)) (or (or ?v_57 ?v_151) ?v_91)) (or (or ?v_73 ?v_90) ?v_114)) (or (or ?v_106 ?v_52) ?v_107)) (or (or ?v_10 ?v_154) ?v_82)) (or (or P29 P6) ?v_9)) (or (or ?v_101 ?v_115) ?v_104)) (or (or ?v_20 ?v_109) ?v_98)) (or (or ?v_44 ?v_134) ?v_35)) (or (or ?v_91 ?v_116) ?v_117)) (or (or P27 ?v_99) ?v_110)) (or (or ?v_118 ?v_85) ?v_57)) (or (or ?v_109 ?v_53) ?v_119)) (or (or ?v_117 ?v_112) P5)) (or (or ?v_113 ?v_120) ?v_54)) (or (or ?v_2 ?v_42) ?v_4)) (or (or ?v_126 ?v_102) ?v_33)) (or (or ?v_88 ?v_19) P9)) (or (or ?v_118 ?v_58) ?v_119)) (or (or ?v_26 ?v_28) ?v_89)) (or (or ?v_10 ?v_118) P13)) (or (or ?v_121 ?v_122) ?v_107)) (or (or ?v_22 ?v_28) ?v_66)) (or (or ?v_107 ?v_77) ?v_127)) (or (or ?v_136 ?v_123) ?v_41)) (or (or ?v_47 ?v_8) ?v_59)) (or (or ?v_124 ?v_63) P2)) (or (or ?v_60 ?v_109) ?v_56)) (or (or ?v_83 ?v_7) ?v_62)) (or (or P21 P29) ?v_125)) (or (or ?v_123 P9) P6)) (or (or ?v_126 ?v_8) ?v_114)) (or (or ?v_9 ?v_87) ?v_53)) (or (or ?v_127 ?v_52) ?v_90)) (or (or ?v_8 ?v_149) P5)) (or (or ?v_128 ?v_45) P7)) (or (or ?v_76 ?v_129) ?v_112)) (or (or ?v_33 ?v_94) ?v_35)) (or (or ?v_79 ?v_116) ?v_84)) (or (or P25 ?v_56) P11)) (or (or ?v_63 ?v_91) ?v_89)) (or (or ?v_16 P2) ?v_130)) (or (or ?v_131 P2) ?v_82)) (or (or P5 ?v_107) ?v_16)) (or (or P26 ?v_48) ?v_26)) (or (or P18 ?v_83) ?v_74)) (or (or ?v_126 ?v_68) ?v_25)) (or (or ?v_34 ?v_132) P22)) (or (or ?v_129 ?v_86) ?v_132)) (or (or ?v_88 ?v_93) ?v_133)) (or (or ?v_69 ?v_18) ?v_8)) (or (or ?v_40 ?v_134) ?v_73)) (or (or ?v_134 ?v_125) ?v_46)) (or (or ?v_100 ?v_135) ?v_17)) (or (or ?v_128 ?v_107) ?v_121)) (or (or ?v_66 ?v_23) ?v_36)) (or (or ?v_136 ?v_99) P25)) (or (or ?v_64 ?v_25) ?v_126)) (or (or ?v_58 ?v_107) P12)) (or (or ?v_137 ?v_138) ?v_115)) (or (or ?v_14 ?v_139) ?v_72)) (or (or ?v_133 ?v_11) ?v_100)) (or (or ?v_103 ?v_140) ?v_8)) (or (or ?v_11 ?v_48) ?v_78)) (or (or ?v_94 ?v_94) ?v_68)) (or (or ?v_141 P13) ?v_29)) (or (or ?v_142 P17) ?v_133)) (or (or ?v_76 P1) ?v_48)) (or (or ?v_106 ?v_35) P29)) (or (or ?v_79 ?v_70) ?v_111)) (or (or ?v_127 P19) ?v_103)) (or (or ?v_15 ?v_27) ?v_45)) (or (or ?v_41 ?v_91) ?v_134)) (or (or P22 P26) ?v_124)) (or (or ?v_17 ?v_129) P22)) (or (or P5 ?v_66) ?v_29)) (or (or ?v_80 ?v_25) P1)) (or (or ?v_38 ?v_84) ?v_95)) (or (or P1 ?v_81) ?v_62)) (or (or ?v_9 ?v_104) ?v_143)) (or (or ?v_42 ?v_47) ?v_94)) (or (or P6 ?v_117) ?v_135)) (or (or P16 ?v_45) P21)) (or (or ?v_100 ?v_30) ?v_107)) (or (or P6 ?v_53) ?v_82)) (or (or ?v_19 ?v_86) ?v_108)) (or (or P11 ?v_147) ?v_11)) (or (or ?v_101 ?v_85) ?v_103)) (or (or ?v_36 ?v_57) ?v_123)) (or (or ?v_114 P19) ?v_101)) (or (or ?v_48 P27) ?v_33)) (or (or P16 ?v_142) P10)) (or (or ?v_69 P21) P18)) (or (or ?v_26 ?v_100) ?v_13)) (or (or ?v_33 ?v_38) ?v_94)) (or (or ?v_9 ?v_101) P20)) (or (or P23 ?v_135) P19)) (or (or ?v_142 ?v_7) ?v_60)) (or (or ?v_144 ?v_79) P28)) (or (or ?v_117 ?v_47) ?v_141)) (or (or P5 ?v_122) P26)) (or (or P4 ?v_7) ?v_145)) (or (or ?v_118 ?v_38) ?v_138)) (or (or ?v_116 ?v_40) ?v_78)) (or (or ?v_43 P9) ?v_48)) (or (or ?v_9 P12) ?v_88)) (or (or P29 ?v_23) ?v_26)) (or (or P5 ?v_25) ?v_103)) (or (or ?v_118 ?v_13) ?v_84)) (or (or ?v_83 ?v_64) ?v_95)) (or (or ?v_41 ?v_92) ?v_146)) (or (or ?v_105 ?v_129) ?v_22)) (or (or ?v_93 P4) ?v_128)) (or (or ?v_40 ?v_83) ?v_99)) (or (or ?v_9 ?v_7) ?v_83)) (or (or ?v_24 ?v_79) (not ?v_83))) (or (or ?v_128 ?v_40) ?v_113)) (or (or ?v_42 ?v_102) ?v_11)) (or (or P12 ?v_108) ?v_64)) (or (or ?v_112 ?v_110) ?v_63)) (or (or ?v_28 ?v_50) ?v_131)) (or (or ?v_33 ?v_73) ?v_15)) (or (or ?v_106 ?v_99) P17)) (or (or ?v_48 ?v_147) ?v_10)) (or (or ?v_41 ?v_146) ?v_117)) (or (or P1 P4) P21)) (or (or ?v_36 ?v_85) ?v_114)) (or (or P11 ?v_38) ?v_28)) (or (or ?v_53 ?v_102) ?v_16)) (or (or ?v_63 P29) ?v_107)) (or (or ?v_12 ?v_27) ?v_146)) (or (or ?v_66 P18) ?v_95)) (or (or ?v_148 ?v_8) ?v_85)) (or (or ?v_110 ?v_137) ?v_140)) (or (or ?v_94 ?v_144) ?v_126)) (or (or P4 ?v_47) ?v_41)) (or (or ?v_103 ?v_149) ?v_38)) (or (or P12 ?v_145) ?v_62)) (or (or ?v_100 ?v_90) ?v_79)) (or (or ?v_107 ?v_71) ?v_84)) (or (or ?v_79 ?v_86) ?v_80)) (or (or ?v_24 ?v_44) ?v_33)) (or (or ?v_58 P21) P9)) (or (or ?v_7 ?v_102) ?v_68)) (or (or ?v_54 P17) ?v_120)) (or (or P1 P19) ?v_116)) (or (or ?v_29 ?v_91) ?v_90)) (or (or ?v_33 ?v_46) ?v_107)) (or (or ?v_50 ?v_146) ?v_148)) (or (or ?v_10 ?v_98) ?v_29)) (or (or P8 ?v_134) P29)) (or (or ?v_109 P12) ?v_0)) (or (or ?v_107 ?v_94) ?v_106)) (or (or ?v_38 ?v_119) ?v_42)) (or (or ?v_24 ?v_75) ?v_68)) (or (or ?v_117 ?v_56) ?v_16)) (or (or ?v_128 ?v_50) ?v_150)) (or (or ?v_99 ?v_0) ?v_45)) (or (or ?v_25 ?v_92) P1)) (or (or P5 P7) ?v_82)) (or (or ?v_81 ?v_41) ?v_139)) (or (or ?v_81 ?v_62) ?v_22)) (or (or ?v_77 P26) ?v_63)) (or (or ?v_151 P9) ?v_117)) (or (or P21 ?v_16) ?v_142)) (or (or P24 ?v_122) ?v_12)) (or (or ?v_43 ?v_141) ?v_122)) (or (or ?v_140 ?v_121) P26)) (or (or ?v_62 P8) ?v_92)) (or (or ?v_58 ?v_102) P15)) (or (or P1 ?v_69) ?v_48)) (or (or P0 ?v_97) ?v_45)) (or (or ?v_84 ?v_20) ?v_26)) (or (or ?v_92 ?v_149) ?v_46)) (or (or ?v_35 ?v_146) ?v_61)) (or (or ?v_58 ?v_13) ?v_137)) (or (or ?v_109 ?v_57) ?v_22)) (or (or ?v_78 ?v_151) ?v_152)) (or (or P5 ?v_115) P23)) (or (or ?v_3 ?v_129) ?v_16)) (or (or ?v_112 ?v_51) ?v_28)) (or (or ?v_47 ?v_77) ?v_126)) (or (or ?v_45 ?v_129) ?v_49)) (or (or ?v_49 ?v_54) ?v_94)) (or (or ?v_133 ?v_122) ?v_149)) (or (or ?v_141 ?v_94) ?v_87)) (or (or ?v_60 ?v_69) P7)) (or (or ?v_135 ?v_30) ?v_113)) (or (or ?v_112 ?v_52) ?v_85)) (or (or P28 ?v_129) ?v_30)) (or (or ?v_69 ?v_42) ?v_47)) (or (or ?v_9 P25) ?v_108)) (or (or ?v_114 ?v_61) ?v_111)) (or (or P25 ?v_95) ?v_124)) (or (or ?v_116 ?v_62) P0)) (or (or ?v_21 ?v_48) ?v_137)) (or (or ?v_83 ?v_139) ?v_86)) (or (or ?v_141 P20) P2)) (or (or ?v_114 ?v_111) ?v_64)) (or (or ?v_101 ?v_74) ?v_147)) (or (or ?v_119 ?v_77) P24)) (or (or ?v_97 ?v_48) ?v_38)) (or (or ?v_87 ?v_4) ?v_123)) (or (or ?v_68 ?v_80) ?v_58)) (or (or ?v_93 ?v_123) ?v_116)) (or (or ?v_117 ?v_139) ?v_132)) (or (or ?v_153 ?v_16) ?v_19)) (or (or ?v_130 ?v_133) ?v_44)) (or (or ?v_101 ?v_89) ?v_66)) (or (or ?v_89 ?v_3) ?v_124)) (or (or ?v_85 ?v_28) P11)) (or (or ?v_33 ?v_143) ?v_118)) (or (or P2 ?v_17) ?v_44)) (or (or ?v_130 ?v_147) ?v_45)) (or (or ?v_33 ?v_56) ?v_18)) (or (or ?v_4 ?v_16) ?v_13)) (or (or ?v_98 P20) ?v_100)) (or (or ?v_123 ?v_111) ?v_48)) (or (or P18 P22) ?v_98)) (or (or ?v_103 ?v_142) ?v_113)) (or (or ?v_38 ?v_102) P22)) (or (or ?v_98 P29) ?v_132)) (or (or ?v_149 ?v_95) ?v_132)) (or (or P6 ?v_92) ?v_91)) (or (or ?v_71 ?v_66) ?v_110)) (or (or ?v_154 ?v_87) ?v_102)) (or (or ?v_13 ?v_24) ?v_125)) (or (or ?v_12 ?v_135) ?v_84)))))))))))))))))))))
(check-sat)
(exit)
